
Gurobi 9.0.3 (win64, Java) logging started Tue Feb 23 17:55:30 2021


--------------------------------------------
Warning: your license will expire in 9 days
--------------------------------------------

Academic license - for non-commercial use only
